c 65_3_checker_6cl.cnf
c
c field = 65
c formula set type = 3_checker_6cl
c
p cnf 6 54
122 
124 
126 
-131 
-120 
-132 
123 
125 
127 
-130 
-121 
-133 
124 
126 
130 
-123 
-120 
-132 
125 
127 
131 
-122 
-121 
-133 
124 
126 
130 
-133 
-122 
-134 
125 
127 
131 
-132 
-123 
-135 
126 
130 
132 
-125 
-122 
-134 
127 
131 
133 
-124 
-123 
-135 
126 
130 
132 
-135 
-124 
-136 
127 
131 
133 
-134 
-125 
-137 
130 
132 
134 
-127 
-124 
-136 
131 
133 
135 
-126 
-125 
-137 
130 
132 
134 
-137 
-126 
-138 
131 
133 
135 
-136 
-127 
-139 
38 
68 
98 
-159 
-8 
-188 
39 
69 
99 
-158 
-9 
-189 
68 
98 
158 
-39 
-8 
-188 
69 
99 
159 
-38 
-9 
-189 
68 
98 
158 
-189 
-38 
-218 
69 
99 
159 
-188 
-39 
-219 
98 
158 
188 
-69 
-38 
-218 
99 
159 
189 
-68 
-39 
-219 
98 
158 
188 
-219 
-68 
-248 
99 
159 
189 
-218 
-69 
-249 
158 
188 
218 
-99 
-68 
-248 
159 
189 
219 
-98 
-69 
-249 
158 
188 
218 
-249 
-98 
-278 
159 
189 
219 
-248 
-99 
-279 
32 
64 
96 
-161 
-0 
-192 
33 
65 
97 
-160 
-1 
-193 
64 
96 
160 
-33 
-0 
-192 
65 
97 
161 
-32 
-1 
-193 
64 
96 
160 
-193 
-32 
-224 
65 
97 
161 
-192 
-33 
-225 
96 
160 
192 
-65 
-32 
-224 
97 
161 
193 
-64 
-33 
-225 
96 
160 
192 
-225 
-64 
-256 
97 
161 
193 
-224 
-65 
-257 
160 
192 
224 
-97 
-64 
-256 
161 
193 
225 
-96 
-65 
-257 
160 
192 
224 
-257 
-96 
-288 
161 
193 
225 
-256 
-97 
-289 
44 
72 
100 
-157 
-16 
-184 
45 
73 
101 
-156 
-17 
-185 
72 
100 
156 
-45 
-16 
-184 
73 
101 
157 
-44 
-17 
-185 
72 
100 
156 
-185 
-44 
-212 
73 
101 
157 
-184 
-45 
-213 
100 
156 
184 
-73 
-44 
-212 
101 
157 
185 
-72 
-45 
-213 
100 
156 
184 
-213 
-72 
-240 
101 
157 
185 
-212 
-73 
-241 
156 
184 
212 
-101 
-72 
-240 
157 
185 
213 
-100 
-73 
-241 
